
n_res = 6;
rcap = [57, 53, 595, 585, 556, 575];
rtype = [1, 1, 2, 2, 2, 2];
n_tasks = 50;
modes =  [{1, 2, 3, 4, 5, 6}, {7, 8, 9, 10, 11, 12}, {13, 14, 15, 16, 17, 18}, {19, 20, 21, 22, 23, 24}, {25, 26, 27, 28, 29, 30}, {31, 32, 33, 34, 35, 36}, {37, 38, 39, 40, 41, 42}, {43, 44, 45, 46, 47, 48}, {49, 50, 51, 52, 53, 54}, {55, 56, 57, 58, 59, 60}, {61, 62, 63, 64, 65, 66}, {67, 68, 69, 70, 71, 72}, {73, 74, 75, 76, 77, 78}, {79, 80, 81, 82, 83, 84}, {85, 86, 87, 88, 89, 90}, {91, 92, 93, 94, 95, 96}, {97, 98, 99, 100, 101, 102}, {103, 104, 105, 106, 107, 108}, {109, 110, 111, 112, 113, 114}, {115, 116, 117, 118, 119, 120}, {121, 122, 123, 124, 125, 126}, {127, 128, 129, 130, 131, 132}, {133, 134, 135, 136, 137, 138}, {139, 140, 141, 142, 143, 144}, {145, 146, 147, 148, 149, 150}, {151, 152, 153, 154, 155, 156}, {157, 158, 159, 160, 161, 162}, {163, 164, 165, 166, 167, 168}, {169, 170, 171, 172, 173, 174}, {175, 176, 177, 178, 179, 180}, {181, 182, 183, 184, 185, 186}, {187, 188, 189, 190, 191, 192}, {193, 194, 195, 196, 197, 198}, {199, 200, 201, 202, 203, 204}, {205, 206, 207, 208, 209, 210}, {211, 212, 213, 214, 215, 216}, {217, 218, 219, 220, 221, 222}, {223, 224, 225, 226, 227, 228}, {229, 230, 231, 232, 233, 234}, {235, 236, 237, 238, 239, 240}, {241, 242, 243, 244, 245, 246}, {247, 248, 249, 250, 251, 252}, {253, 254, 255, 256, 257, 258}, {259, 260, 261, 262, 263, 264}, {265, 266, 267, 268, 269, 270}, {271, 272, 273, 274, 275, 276}, {277, 278, 279, 280, 281, 282}, {283, 284, 285, 286, 287, 288}, {289, 290, 291, 292, 293, 294}, {295, 296, 297, 298, 299, 300}];
succ =  [{14, 9, 8, 7, 6}, {20, 16, 14, 10}, {7, 6}, {14, 11, 7}, {20, 18, 16, 15, 14}, {21, 20, 18, 11}, {22, 21, 18, 17, 16}, {24, 20, 18, 17, 15}, {21, 17, 13}, {18, 11}, {17, 15}, {24, 15}, {24, 22, 18}, {21, 17}, {27, 22, 19}, {27, 23, 19}, {27, 19}, {28, 27, 26, 25}, {28, 26, 25}, {27, 26, 25}, {25, 24}, {23}, {26, 25}, {36, 30, 26}, {36, 34, 33, 32, 31, 30, 29}, {38, 33, 32, 31, 29}, {36, 33, 31, 30, 29}, {42, 39, 38, 37, 35, 32}, {49, 42, 39, 37, 35}, {50, 49, 42, 40, 37}, {50, 49, 43, 42, 40}, {50, 49, 48, 43, 40}, {49, 48, 43, 39}, {49, 43, 40}, {50, 48, 47, 41}, {50, 48, 47, 41}, {48, 43, 41}, {49, 48, 41}, {40}, {47, 41}, {46, 45}, {44}, {45}, {47}, {}, {}, {}, {}, {}, {}];
n_opt = 300;
dur = [3, 6, 11, 12, 14, 15, 4, 8, 9, 10, 14, 16, 1, 2, 7, 11, 17, 19, 1, 2, 8, 16, 17, 19, 1, 3, 4, 13, 17, 18, 3, 8, 13, 17, 18, 20, 2, 7, 9, 18, 19, 20, 1, 3, 7, 13, 14, 15, 2, 5, 8, 10, 11, 14, 2, 3, 4, 5, 6, 7, 1, 2, 3, 12, 16, 17, 6, 7, 17, 18, 19, 20, 4, 6, 8, 11, 14, 19, 2, 3, 11, 12, 13, 19, 9, 11, 13, 14, 16, 19, 8, 9, 11, 16, 17, 18, 5, 12, 17, 18, 19, 20, 1, 2, 12, 13, 14, 15, 2, 6, 11, 13, 17, 18, 3, 4, 5, 8, 14, 17, 1, 3, 4, 7, 8, 12, 7, 11, 12, 13, 14, 16, 3, 7, 12, 14, 15, 19, 1, 11, 17, 18, 19, 20, 2, 5, 11, 14, 17, 19, 6, 8, 11, 12, 14, 20, 7, 8, 9, 10, 17, 20, 1, 4, 6, 9, 11, 15, 6, 7, 8, 13, 14, 15, 2, 3, 10, 14, 18, 19, 1, 2, 5, 7, 14, 18, 1, 8, 10, 13, 16, 17, 1, 6, 7, 13, 14, 16, 5, 6, 11, 12, 19, 20, 7, 8, 9, 12, 18, 19, 1, 3, 6, 9, 10, 15, 1, 3, 6, 11, 16, 17, 3, 9, 10, 12, 13, 20, 7, 12, 13, 14, 16, 18, 2, 3, 4, 5, 6, 13, 1, 6, 7, 8, 13, 18, 1, 8, 9, 10, 12, 20, 2, 3, 9, 11, 14, 20, 4, 6, 8, 9, 10, 17, 2, 3, 8, 10, 11, 13, 4, 8, 11, 12, 14, 18, 8, 11, 12, 13, 16, 20, 2, 3, 4, 11, 14, 20, 4, 9, 10, 15, 19, 20, 7, 13, 16, 17, 18, 19];
rreq = [|16, 12, 11, 7, 5, 5, 12, 11, 11, 11, 11, 11, 17, 14, 14, 12, 7, 6, 12, 10, 8, 5, 5, 2, 19, 14, 14, 10, 5, 3, 9, 8, 8, 8, 7, 6, 6, 6, 5, 3, 3, 2, 13, 11, 10, 6, 4, 1, 13, 11, 9, 6, 5, 3, 13, 12, 10, 9, 9, 7, 6, 6, 5, 3, 2, 1, 18, 16, 15, 13, 11, 10, 15, 14, 13, 11, 9, 7, 9, 8, 8, 8, 8, 8, 9, 8, 8, 7, 5, 4, 15, 13, 11, 9, 5, 3, 4, 3, 2, 2, 1, 1, 4, 4, 4, 3, 3, 2, 17, 17, 17, 16, 16, 16, 19, 17, 15, 10, 9, 7, 16, 16, 13, 12, 8, 5, 6, 6, 6, 5, 5, 4, 18, 17, 16, 15, 14, 13, 15, 14, 14, 13, 12, 11, 17, 15, 12, 11, 11, 9, 20, 15, 14, 10, 6, 6, 9, 8, 8, 5, 5, 4, 14, 13, 11, 10, 10, 9, 6, 6, 5, 5, 4, 4, 17, 16, 16, 16, 14, 14, 10, 9, 7, 7, 6, 5, 6, 6, 6, 6, 6, 6, 16, 13, 10, 8, 5, 3, 16, 16, 15, 13, 13, 11, 12, 11, 9, 9, 7, 5, 17, 14, 12, 8, 7, 5, 18, 18, 17, 17, 17, 16, 3, 2, 2, 2, 2, 2, 17, 15, 14, 11, 9, 7, 11, 10, 9, 8, 7, 6, 14, 14, 12, 12, 9, 9, 12, 12, 10, 10, 8, 7, 19, 15, 12, 12, 10, 8, 20, 15, 13, 10, 7, 5, 6, 5, 4, 4, 3, 2, 11, 9, 9, 7, 7, 6, 16, 16, 13, 10, 10, 7, 7, 6, 6, 6, 5, 5, 20, 15, 13, 8, 5, 3, 16, 16, 15, 12, 11, 10
 |15, 15, 13, 10, 8, 7, 11, 11, 10, 10, 8, 8, 3, 3, 3, 3, 3, 3, 13, 11, 9, 6, 4, 3, 19, 19, 18, 16, 16, 14, 13, 12, 12, 10, 9, 9, 19, 19, 18, 17, 16, 16, 14, 13, 11, 8, 6, 3, 11, 9, 7, 7, 5, 2, 15, 11, 10, 7, 7, 5, 17, 17, 17, 17, 17, 17, 13, 13, 13, 13, 13, 13, 17, 14, 11, 10, 7, 3, 15, 15, 14, 13, 10, 9, 16, 16, 15, 14, 14, 13, 12, 10, 8, 6, 4, 2, 11, 11, 10, 8, 8, 7, 12, 11, 10, 10, 9, 8, 11, 11, 7, 5, 3, 3, 11, 9, 7, 4, 2, 2, 18, 17, 17, 16, 16, 16, 15, 12, 10, 7, 7, 3, 17, 15, 12, 10, 9, 6, 5, 4, 4, 3, 3, 3, 15, 14, 11, 11, 7, 6, 14, 12, 10, 8, 5, 4, 12, 10, 8, 6, 5, 4, 18, 16, 15, 14, 13, 13, 13, 11, 11, 10, 10, 9, 10, 8, 8, 5, 4, 2, 9, 8, 8, 7, 7, 7, 18, 14, 13, 10, 8, 8, 8, 7, 7, 6, 6, 5, 9, 8, 7, 5, 4, 4, 20, 17, 15, 13, 12, 8, 19, 15, 13, 10, 9, 6, 12, 11, 11, 10, 10, 10, 15, 15, 15, 15, 15, 15, 8, 7, 7, 6, 6, 5, 7, 7, 7, 7, 6, 6, 12, 12, 12, 12, 12, 12, 12, 12, 9, 7, 6, 3, 5, 4, 4, 3, 3, 3, 18, 16, 14, 12, 8, 5, 11, 8, 7, 5, 5, 2, 20, 20, 20, 20, 20, 20, 16, 16, 15, 14, 12, 11, 12, 12, 12, 11, 11, 10, 16, 15, 14, 14, 12, 12, 17, 17, 17, 16, 16, 16
 |19, 16, 13, 11, 8, 4, 7, 6, 6, 6, 4, 4, 15, 15, 14, 13, 12, 12, 18, 15, 15, 13, 11, 9, 18, 18, 16, 16, 15, 13, 19, 17, 16, 14, 14, 12, 13, 13, 9, 9, 7, 5, 15, 15, 15, 15, 14, 14, 17, 14, 14, 12, 9, 9, 18, 18, 18, 17, 17, 16, 15, 14, 12, 12, 11, 10, 3, 3, 3, 3, 2, 2, 17, 16, 14, 12, 9, 9, 18, 16, 16, 13, 11, 10, 14, 14, 14, 14, 14, 14, 9, 8, 8, 8, 8, 8, 12, 9, 7, 5, 3, 3, 19, 17, 17, 15, 13, 13, 11, 11, 10, 9, 7, 6, 19, 19, 19, 19, 19, 19, 7, 6, 6, 3, 3, 2, 20, 16, 15, 14, 12, 10, 13, 11, 10, 8, 6, 4, 1, 1, 1, 1, 1, 1, 18, 17, 16, 14, 14, 13, 11, 11, 8, 7, 3, 1, 16, 13, 11, 10, 9, 7, 13, 12, 11, 9, 8, 8, 7, 5, 4, 3, 3, 1, 19, 16, 14, 14, 12, 8, 11, 11, 11, 10, 9, 9, 9, 7, 7, 4, 4, 1, 14, 13, 10, 7, 7, 4, 18, 17, 17, 17, 17, 17, 5, 5, 5, 5, 5, 5, 5, 5, 5, 4, 4, 4, 16, 13, 11, 7, 7, 5, 20, 19, 19, 18, 17, 17, 16, 16, 16, 16, 16, 16, 5, 4, 4, 4, 4, 4, 10, 9, 9, 9, 9, 9, 6, 5, 4, 3, 2, 1, 17, 17, 16, 14, 14, 12, 7, 6, 5, 4, 3, 3, 17, 14, 14, 12, 12, 10, 11, 11, 11, 11, 11, 11, 20, 18, 15, 13, 12, 9, 16, 11, 11, 8, 5, 3, 7, 6, 5, 5, 4, 3, 12, 11, 8, 8, 5, 4
 |4, 4, 4, 4, 4, 4, 9, 8, 8, 7, 6, 5, 15, 15, 14, 14, 14, 13, 7, 7, 7, 6, 5, 5, 7, 7, 7, 7, 6, 6, 13, 13, 11, 9, 8, 6, 18, 17, 13, 10, 8, 6, 15, 12, 9, 8, 6, 2, 16, 14, 12, 12, 11, 9, 8, 7, 6, 6, 4, 3, 13, 11, 10, 8, 7, 7, 5, 5, 5, 4, 3, 3, 16, 14, 12, 8, 8, 5, 18, 18, 18, 17, 17, 16, 16, 13, 11, 8, 6, 3, 10, 9, 9, 9, 8, 8, 12, 11, 10, 9, 7, 5, 15, 13, 12, 8, 6, 6, 17, 14, 11, 9, 6, 2, 20, 20, 20, 20, 20, 20, 16, 13, 11, 10, 8, 5, 19, 17, 12, 10, 6, 4, 13, 10, 10, 8, 5, 3, 17, 15, 14, 14, 12, 11, 12, 12, 10, 7, 5, 3, 15, 14, 14, 14, 13, 13, 16, 14, 14, 13, 12, 12, 13, 13, 10, 8, 5, 5, 10, 8, 8, 7, 7, 6, 15, 14, 13, 10, 10, 8, 16, 15, 13, 11, 10, 9, 10, 9, 7, 7, 5, 5, 9, 9, 8, 8, 8, 7, 11, 10, 9, 8, 5, 5, 2, 2, 2, 1, 1, 1, 10, 10, 10, 10, 9, 9, 19, 17, 14, 13, 11, 11, 11, 11, 11, 11, 10, 10, 18, 16, 16, 15, 12, 10, 15, 14, 12, 9, 8, 5, 19, 18, 15, 13, 10, 9, 7, 6, 6, 4, 3, 3, 15, 13, 13, 12, 11, 10, 16, 14, 13, 12, 12, 11, 16, 13, 12, 10, 8, 7, 9, 7, 6, 5, 3, 3, 20, 19, 17, 16, 16, 15, 13, 13, 13, 13, 12, 12, 8, 7, 7, 6, 5, 5, 15, 14, 14, 13, 13, 13
 |12, 12, 12, 11, 11, 11, 15, 11, 10, 9, 6, 3, 16, 14, 14, 10, 10, 7, 18, 13, 12, 8, 6, 2, 18, 17, 14, 12, 11, 7, 5, 5, 3, 2, 2, 1, 14, 13, 12, 11, 10, 10, 5, 4, 4, 3, 3, 2, 10, 10, 10, 10, 9, 9, 15, 12, 12, 9, 7, 7, 7, 6, 6, 5, 5, 4, 19, 14, 13, 12, 8, 6, 16, 14, 13, 10, 7, 4, 15, 14, 14, 13, 12, 11, 16, 15, 13, 11, 7, 7, 6, 4, 4, 4, 3, 2, 5, 4, 3, 2, 2, 1, 9, 6, 5, 5, 4, 3, 18, 15, 15, 12, 12, 9, 7, 6, 6, 6, 5, 5, 18, 18, 17, 16, 14, 14, 13, 13, 13, 13, 13, 13, 14, 13, 9, 9, 6, 5, 10, 10, 10, 10, 10, 10, 16, 15, 15, 14, 14, 14, 11, 10, 7, 6, 3, 3, 17, 15, 14, 12, 10, 10, 13, 12, 11, 9, 6, 5, 14, 11, 10, 8, 6, 5, 13, 11, 10, 7, 6, 6, 15, 14, 14, 14, 14, 14, 12, 12, 10, 8, 7, 5, 5, 4, 4, 3, 2, 2, 17, 16, 15, 14, 11, 10, 15, 13, 12, 10, 10, 8, 14, 14, 9, 9, 3, 3, 18, 18, 17, 17, 17, 16, 13, 12, 10, 9, 8, 8, 8, 6, 5, 4, 2, 1, 9, 8, 6, 6, 5, 3, 13, 10, 10, 6, 5, 4, 5, 4, 3, 3, 1, 1, 13, 13, 13, 12, 12, 11, 5, 4, 4, 3, 3, 3, 16, 14, 14, 12, 11, 9, 16, 14, 13, 12, 11, 10, 15, 15, 15, 15, 15, 15, 9, 8, 7, 5, 4, 2, 15, 15, 15, 14, 14, 13, 12, 11, 10, 7, 5, 3
 |8, 7, 7, 6, 5, 5, 18, 16, 15, 15, 13, 10, 13, 13, 12, 10, 9, 8, 10, 8, 7, 4, 4, 3, 15, 15, 13, 10, 10, 7, 15, 10, 9, 7, 5, 1, 13, 12, 11, 11, 10, 9, 20, 17, 17, 14, 13, 12, 12, 12, 11, 10, 10, 9, 2, 2, 2, 1, 1, 1, 9, 8, 7, 7, 5, 4, 17, 15, 12, 9, 4, 2, 16, 13, 12, 11, 9, 6, 15, 15, 14, 14, 14, 13, 18, 17, 17, 16, 15, 15, 14, 12, 8, 8, 4, 2, 8, 8, 6, 5, 4, 4, 14, 13, 13, 10, 9, 8, 10, 10, 7, 6, 5, 3, 13, 10, 8, 8, 6, 5, 9, 7, 7, 4, 2, 2, 17, 15, 15, 14, 13, 13, 7, 6, 5, 4, 3, 1, 2, 2, 2, 2, 2, 2, 17, 16, 16, 16, 16, 16, 11, 11, 9, 7, 5, 4, 15, 15, 15, 14, 14, 13, 20, 19, 19, 18, 18, 18, 16, 14, 12, 11, 9, 7, 14, 14, 13, 13, 11, 11, 17, 15, 12, 9, 7, 6, 8, 6, 6, 5, 4, 4, 19, 18, 16, 15, 12, 11, 7, 6, 6, 5, 5, 5, 10, 7, 6, 5, 4, 2, 16, 16, 12, 11, 10, 8, 7, 5, 4, 4, 2, 2, 5, 4, 3, 3, 2, 1, 12, 12, 12, 11, 10, 10, 17, 13, 11, 10, 8, 7, 19, 18, 17, 15, 15, 14, 9, 9, 7, 7, 6, 5, 16, 14, 14, 11, 9, 8, 18, 15, 14, 9, 7, 5, 19, 18, 18, 17, 16, 16, 12, 11, 10, 8, 5, 3, 19, 14, 12, 9, 9, 5, 6, 6, 6, 6, 6, 6, 18, 18, 18, 17, 17, 17, 7, 7, 7, 7, 7, 7|];